p tw 84 98
1 2
2 13
3 4
4 5
5 6
6 7
6 9
7 8
8 57
9 10
10 11
11 12
12 14
13 24
14 15
15 16
16 17
17 18
18 19
19 20
19 82
20 21
21 22
22 23
23 25
24 35
25 26
25 17
26 27
27 28
28 29
29 30
30 31
30 17
31 32
32 33
33 34
34 36
34 78
35 46
35 11
36 37
37 38
38 39
39 40
40 41
41 42
42 43
43 44
44 45
45 47
46 57
47 48
48 49
48 67
49 50
50 51
51 52
51 53
52 53
53 54
54 55
55 56
56 58
57 68
58 59
59 60
59 43
60 61
60 65
61 62
61 65
62 63
63 64
64 65
65 66
66 67
67 69
68 79
69 70
69 78
70 71
70 72
71 72
71 76
72 73
73 74
74 75
75 76
76 77
77 78
78 80
79 84
79 9
80 81
81 29
82 83
84 3
